
   AbsCon 1.41 (January, 2014) - defaultConfiguration

   
   instance
        framework=CSP  name=Isomorphism-/cluster/gpg/ciaran/sip-benchmarks/benchmarks/LV/g37-/cluster/gpg/ciaran/sip-benchmarks/benchmarks/LV/g44
        parameters=/cluster/gpg/ciaran/sip-benchmarks/benchmarks/LV/g37,/cluster/gpg/ciaran/sip-benchmarks/benchmarks/LV/g44
      

   loading variables...
        nbVariables=120  nbDomainTypes=1  nbTotalValues=15360  domainSizes=(128:120)
          =>  wckTime=0.183  cpuTime=0.306  mem=10M128

   loading objectives...

   loading constraints...
        nbConstraints=639  nbSpecificConstraints=1  nbExtensionStructures=(1,shared:637)  nbConflictsStructures=(1,shared:637,unbuilt:1)
        degrees=(8:1)(9:5)(10:15)...(12:47)(13:21)(14:5)  arities=(2:638)(120:1)  types=(AllDifferent:1)(ConstraintHardExtensionV-Bits:638)
          =>  wckTime=0.327  cpuTime=0.44  mem=9M437

   INFO : <!-- Start saving the XML representation -->

   INFO : <!-- Stop saving the XML representation of g44.xml -->

   Solver SolverBacktrack being built... 
          =>  wckTime=0.516  cpuTime=0.607  mem=24M721

   
   search
        run=0  nbConstraintChecks=0  depth=(min:0,max:0,avg:1)  nbEffectivePropagations=862  nbRevisions=13017  nbUselessRevisions=12261
        nbAssignments=126  nbFailedAssignments=126  nbBacktracks=1  nbVisitedNodes=252  nbRestartNogoods=0
          =>  wckTime=1.272  cpuTime=1.861  mem=22M784

   
   global
        nbConstraintChecks=0  nbEffectivePropagations=862  nbRevisions=13017  nbUselessRevisions=12261  nbRestartNogoods=0  solvingWckTime=1.272
        expiredTime=no  totalExploration=yes  nbFoundSolutions=0  Stop=FULL_EXPLORATION
          =>  wckTime=1.789  cpuTime=1.861  mem=22M784

s UNSATISFIABLE
d NODES 126

   totalWckTime=1.688  totalCpuTime=1.862
